&CONTROL
   calculation      = 'relax'
   verbosity        = 'low'
   nstep            = 200
   outdir           = './qe/'
   prefix           = 'H2O'
   pseudo_dir       = './qe/ONCV/'
/
&SYSTEM
   ecutwfc          = 80
   occupations      = 'fixed'
   nspin            = 1
   ntyp             = 2
   nat              = 6
   ibrav            = 0
/
&ELECTRONS
/
&IONS
/
&CELL
/
ATOMIC_SPECIES
O 15.999 O_ONCV_PBE-1.0.upf
H 1.008 H_ONCV_PBE-1.0.upf

K_POINTS automatic
1 1 1  0 0 0

CELL_PARAMETERS angstrom
11.00000000000000 0.00000000000000 0.00000000000000
0.00000000000000 12.52647800000000 0.00000000000000
0.00000000000000 0.00000000000000 11.59630900000000

ATOMIC_POSITIONS angstrom
O 5.0000000000 5.7632390000 5.5963090000
H 5.0000000000 6.5264780000 5.0000000000
H 5.0000000000 5.0000000000 5.0000000000
O 6.0000000000 6.7632390000 6.5963090000
H 6.0000000000 7.5264780000 6.0000000000
H 6.0000000000 6.0000000000 6.0000000000

