&CONTROL
   calculation      = 'relax'
   verbosity        = 'low'
   nstep            = 200
   outdir           = './qe/'
   prefix           = 'H2'
   pseudo_dir       = './qe/ONCV/'
/
&SYSTEM
   ecutwfc          = 80
   occupations      = 'fixed'
   nspin            = 1
   ntyp             = 1
   nat              = 2
   ibrav            = 0
/
&ELECTRONS
/
&IONS
/
&CELL
/
ATOMIC_SPECIES
H 1.008 H_ONCV_PBE-1.0.upf

K_POINTS automatic
1 1 1  0 0 0

CELL_PARAMETERS angstrom
10.00000000000000 0.00000000000000 0.00000000000000
0.00000000000000 10.00000000000000 0.00000000000000
0.00000000000000 0.00000000000000 10.73716600000000

ATOMIC_POSITIONS angstrom
H 5.0000000000 5.0000000000 5.7371660000
H 5.0000000000 5.0000000000 5.0000000000

